NAME : portgen-15-8
COMMENT : portgen N=15, seed=8
TYPE : TSP
DIMENSION : 15
EDGE_WEIGHT_TYPE : EUC_2D
NODE_COORD_SECTION
1 602886 524197
2 101777 952204
3 785998 787527
4 397021 231954
5 506509 174219
6 868316 19725
7 106980 222733
8 731596 567481
9 299133 313307
10 312064 29332
11 55073 165948
12 945304 280528
13 195368 197107
14 113615 292047
15 229041 735237
